benchmark/results/graph__10-1000-0.10-03_15/graph__10-1000-0.10-03_15_Quinton_Benders_primal_sub.lp
\ This file has been generated by DOcplex
\ ENCODING=ISO-8859-1
\Problem name: Quinton Benders_primal_sub

Maximize
 obj: tau
Subject To
 c1: tau <= 0.001173708920
 c2: y_a0_proc_0 + y_a0_proc_1 + y_a0_proc_2 - tau = 0
 c3: y_a0_proc_0 <= 0
 c4: y_a0_proc_1 <= 0
 c5: y_a0_proc_2 <= 1
 c6: tau <= 0.000959692898
 c7: y_a1_proc_0 + y_a1_proc_1 + y_a1_proc_2 - tau = 0
 c8: y_a1_proc_0 <= 0
 c9: y_a1_proc_1 <= 1
 c10: y_a1_proc_2 <= 0
 c11: tau <= 0.001184834123
 c12: y_a2_proc_0 + y_a2_proc_1 + y_a2_proc_2 - tau = 0
 c13: y_a2_proc_0 <= 1
 c14: y_a2_proc_1 <= 0
 c15: y_a2_proc_2 <= 0
 c16: tau <= 0.001453488372
 c17: y_a3_proc_0 + y_a3_proc_1 + y_a3_proc_2 - tau = 0
 c18: y_a3_proc_0 <= 0
 c19: y_a3_proc_1 <= 0
 c20: y_a3_proc_2 <= 1
 c21: tau <= 0.001345895020
 c22: y_a4_proc_0 + y_a4_proc_1 + y_a4_proc_2 - tau = 0
 c23: y_a4_proc_0 <= 1
 c24: y_a4_proc_1 <= 0
 c25: y_a4_proc_2 <= 0
 c26: tau <= 0.001298701299
 c27: y_a5_proc_0 + y_a5_proc_2 - tau = 0
 c28: y_a5_proc_0 <= 0
 c29: y_a5_proc_2 <= 1
 c30: tau <= 0.000870322019
 c31: y_a6_proc_0 + y_a6_proc_1 + y_a6_proc_2 - tau = 0
 c32: y_a6_proc_0 <= 1
 c33: y_a6_proc_1 <= 0
 c34: y_a6_proc_2 <= 0
 c35: tau <= 0.002105263158
 c36: y_a7_proc_0 + y_a7_proc_1 + y_a7_proc_2 - tau = 0
 c37: y_a7_proc_0 <= 1
 c38: y_a7_proc_1 <= 0
 c39: y_a7_proc_2 <= 0
 c40: tau <= 0.001182033097
 c41: y_a8_proc_0 + y_a8_proc_1 + y_a8_proc_2 - tau = 0
 c42: y_a8_proc_0 <= 0
 c43: y_a8_proc_1 <= 1
 c44: y_a8_proc_2 <= 0
 c45: tau <= 0.000951474786
 c46: y_a9_proc_1 - tau = 0
 c47: y_a9_proc_1 <= 1
 c48: u_a0 - u_a1 - 803 y_a1_proc_0 - 1042 y_a1_proc_1 - 1225 y_a1_proc_2 >= 0
 c49: u_a2 - u_a0 - 1275 y_a0_proc_0 - 610 y_a0_proc_1 - 852 y_a0_proc_2 >= -1
 c50: u_a3 - u_a2 - 844 y_a2_proc_0 - 541 y_a2_proc_1 - 1046 y_a2_proc_2 >= 0
 c51: u_a4 - u_a3 - 1123 y_a3_proc_0 - 915 y_a3_proc_1 - 688 y_a3_proc_2 >= 0
 c52: u_a2 - u_a5 - 956 y_a5_proc_0 - 770 y_a5_proc_2 >= 0
 c53: u_a1 - u_a6 - 1149 y_a6_proc_0 - 835 y_a6_proc_1 - 1197 y_a6_proc_2 >= -1
 c54: u_a7 - u_a6 - 1149 y_a6_proc_0 - 835 y_a6_proc_1 - 1197 y_a6_proc_2 >= -1
 c55: u_a8 - u_a6 - 1149 y_a6_proc_0 - 835 y_a6_proc_1 - 1197 y_a6_proc_2 >= -1
 c56: u_a9 - u_a1 - 803 y_a1_proc_0 - 1042 y_a1_proc_1 - 1225 y_a1_proc_2 >= 0
 c57: u_a5 - u_a2 - 844 y_a2_proc_0 - 541 y_a2_proc_1 - 1046 y_a2_proc_2 >= -1
 c58: u_a6 - u_a4 - 743 y_a4_proc_0 - 1022 y_a4_proc_1 - 1254 y_a4_proc_2 >= 0
 c59: u_a5 - u_a4 - 743 y_a4_proc_0 - 1022 y_a4_proc_1 - 1254 y_a4_proc_2 >= -1
 c60: u_a2 - u_a7 - 475 y_a7_proc_0 - 1052 y_a7_proc_1 - 822 y_a7_proc_2 >= 0
 c61: u_a7 - u_a3 - 1123 y_a3_proc_0 - 915 y_a3_proc_1 - 688 y_a3_proc_2 >= -1
 c62: - 1051 y_a9_proc_1 >= -1
 c63: u_a5 - u_a9 - 1051 y_a9_proc_1 >= -1
 c64: u_a6 - u_a8 - 986 y_a8_proc_0 - 846 y_a8_proc_1 - 705 y_a8_proc_2 >= 0
 c65: u_a1 - u_a0 - 852 y_a0_proc_2 >= -2551
 c66: u_a1 - u_a0 - 610 y_a0_proc_1 >= -2551
 c67: u_a1 - u_a0 - 1275 y_a0_proc_0 >= -3826
 c68: u_a0 - u_a1 - 1225 y_a1_proc_2 >= 0
 c69: u_a0 - u_a1 - 1042 y_a1_proc_1 >= 0
 c70: u_a0 - u_a1 - 803 y_a1_proc_0 >= -1275
 c71: u_a2 - u_a0 - 852 y_a0_proc_2 >= -2
 c72: u_a2 - u_a0 - 610 y_a0_proc_1 >= -1277
 c73: u_a2 - u_a0 - 1275 y_a0_proc_0 >= -2
 c74: u_a0 - u_a2 - 1046 y_a2_proc_2 >= -2549
 c75: u_a0 - u_a2 - 541 y_a2_proc_1 >= -3824
 c76: u_a0 - u_a2 - 844 y_a2_proc_0 >= -2549
 c77: u_a3 - u_a0 - 852 y_a0_proc_2 >= -1
 c78: u_a3 - u_a0 - 610 y_a0_proc_1 >= -2551
 c79: u_a3 - u_a0 - 1275 y_a0_proc_0 >= -2551
 c80: u_a0 - u_a3 - 688 y_a3_proc_2 >= 0
 c81: u_a0 - u_a3 - 915 y_a3_proc_1 >= -2550
 c82: u_a0 - u_a3 - 1123 y_a3_proc_0 >= -2550
 c83: u_a4 - u_a0 - 852 y_a0_proc_2 >= -2551
 c84: u_a4 - u_a0 - 610 y_a0_proc_1 >= -3826
 c85: u_a4 - u_a0 - 1275 y_a0_proc_0 >= -2551
 c86: u_a0 - u_a4 - 1254 y_a4_proc_2 >= 0
 c87: u_a0 - u_a4 - 1022 y_a4_proc_1 >= -1275
 c88: u_a0 - u_a4 - 743 y_a4_proc_0 >= 0
 c89: u_a5 - u_a0 - 852 y_a0_proc_2 >= -2
 c90: u_a5 - u_a0 - 1275 y_a0_proc_0 >= -2552
 c91: u_a0 - u_a5 - 770 y_a5_proc_2 >= 1
 c92: u_a0 - u_a5 - 956 y_a5_proc_0 >= -2549
 c93: u_a6 - u_a0 - 852 y_a0_proc_2 >= -1
 c94: u_a6 - u_a0 - 610 y_a0_proc_1 >= -1276
 c95: u_a6 - u_a0 - 1275 y_a0_proc_0 >= -1
 c96: u_a0 - u_a6 - 1197 y_a6_proc_2 >= -2550
 c97: u_a0 - u_a6 - 835 y_a6_proc_1 >= -3825
 c98: u_a0 - u_a6 - 1149 y_a6_proc_0 >= -2550
 c99: u_a7 - u_a0 - 852 y_a0_proc_2 >= -2511
 c100: u_a7 - u_a0 - 610 y_a0_proc_1 >= -3786
 c101: u_a7 - u_a0 - 1275 y_a0_proc_0 >= -2511
 c102: u_a0 - u_a7 - 822 y_a7_proc_2 >= -40
 c103: u_a0 - u_a7 - 1052 y_a7_proc_1 >= -1315
 c104: u_a0 - u_a7 - 475 y_a7_proc_0 >= -40
 c105: u_a8 - u_a0 - 852 y_a0_proc_2 >= -1
 c106: u_a8 - u_a0 - 610 y_a0_proc_1 >= -1
 c107: u_a8 - u_a0 - 1275 y_a0_proc_0 >= -1276
 c108: u_a0 - u_a8 - 705 y_a8_proc_2 >= -2550
 c109: u_a0 - u_a8 - 846 y_a8_proc_1 >= -2550
 c110: u_a0 - u_a8 - 986 y_a8_proc_0 >= -3825
 c111: u_a9 - u_a0 - 610 y_a0_proc_1 >= -1
 c112: u_a0 - u_a9 - 1051 y_a9_proc_1 >= -2550
 c113: u_a2 - u_a1 - 1225 y_a1_proc_2 >= -3825
 c114: u_a2 - u_a1 - 1042 y_a1_proc_1 >= -2550
 c115: u_a2 - u_a1 - 803 y_a1_proc_0 >= -2550
 c116: u_a1 - u_a2 - 1046 y_a2_proc_2 >= -1276
 c117: u_a1 - u_a2 - 541 y_a2_proc_1 >= -1
 c118: u_a1 - u_a2 - 844 y_a2_proc_0 >= -1
 c119: u_a3 - u_a1 - 1225 y_a1_proc_2 >= 0
 c120: u_a3 - u_a1 - 1042 y_a1_proc_1 >= 0
 c121: u_a3 - u_a1 - 803 y_a1_proc_0 >= -1275
 c122: u_a1 - u_a3 - 688 y_a3_proc_2 >= -2551
 c123: u_a1 - u_a3 - 915 y_a3_proc_1 >= -2551
 c124: u_a1 - u_a3 - 1123 y_a3_proc_0 >= -3826
 c125: u_a4 - u_a1 - 1225 y_a1_proc_2 >= -3784
 c126: u_a4 - u_a1 - 1042 y_a1_proc_1 >= -2509
 c127: u_a4 - u_a1 - 803 y_a1_proc_0 >= -2509
 c128: u_a1 - u_a4 - 1254 y_a4_proc_2 >= -1317
 c129: u_a1 - u_a4 - 1022 y_a4_proc_1 >= -42
 c130: u_a1 - u_a4 - 743 y_a4_proc_0 >= -42
 c131: u_a5 - u_a1 - 1225 y_a1_proc_2 >= -2551
 c132: u_a5 - u_a1 - 803 y_a1_proc_0 >= -3826
 c133: u_a1 - u_a5 - 770 y_a5_proc_2 >= 0
 c134: u_a1 - u_a5 - 956 y_a5_proc_0 >= -1275
 c135: u_a6 - u_a1 - 1225 y_a1_proc_2 >= -1275
 c136: u_a6 - u_a1 - 1042 y_a1_proc_1 >= 0
 c137: u_a6 - u_a1 - 803 y_a1_proc_0 >= 0
 c138: u_a1 - u_a6 - 1197 y_a6_proc_2 >= -3826
 c139: u_a1 - u_a6 - 835 y_a6_proc_1 >= -2551
 c140: u_a1 - u_a6 - 1149 y_a6_proc_0 >= -2551
 c141: u_a7 - u_a1 - 1225 y_a1_proc_2 >= -1318
 c142: u_a7 - u_a1 - 1042 y_a1_proc_1 >= -43
 c143: u_a7 - u_a1 - 803 y_a1_proc_0 >= -43
 c144: u_a1 - u_a7 - 822 y_a7_proc_2 >= -3783
 c145: u_a1 - u_a7 - 1052 y_a7_proc_1 >= -2508
 c146: u_a1 - u_a7 - 475 y_a7_proc_0 >= -2508
 c147: u_a8 - u_a1 - 1225 y_a1_proc_2 >= -2550
 c148: u_a8 - u_a1 - 1042 y_a1_proc_1 >= 0
 c149: u_a8 - u_a1 - 803 y_a1_proc_0 >= -2550
 c150: u_a1 - u_a8 - 705 y_a8_proc_2 >= -2551
 c151: u_a1 - u_a8 - 846 y_a8_proc_1 >= -1
 c152: u_a1 - u_a8 - 986 y_a8_proc_0 >= -2551
 c153: u_a9 - u_a1 - 1042 y_a1_proc_1 >= 0
 c154: u_a1 - u_a9 - 1051 y_a9_proc_1 >= -1
 c155: u_a3 - u_a2 - 1046 y_a2_proc_2 >= -2550
 c156: u_a3 - u_a2 - 541 y_a2_proc_1 >= -3825
 c157: u_a3 - u_a2 - 844 y_a2_proc_0 >= -2550
 c158: u_a2 - u_a3 - 688 y_a3_proc_2 >= -1
 c159: u_a2 - u_a3 - 915 y_a3_proc_1 >= -1276
 c160: u_a2 - u_a3 - 1123 y_a3_proc_0 >= -1
 c161: u_a4 - u_a2 - 1046 y_a2_proc_2 >= -2550
 c162: u_a4 - u_a2 - 541 y_a2_proc_1 >= -2550
 c163: u_a4 - u_a2 - 844 y_a2_proc_0 >= 0
 c164: u_a2 - u_a4 - 1254 y_a4_proc_2 >= -2551
 c165: u_a2 - u_a4 - 1022 y_a4_proc_1 >= -2551
 c166: u_a2 - u_a4 - 743 y_a4_proc_0 >= -1
 c167: u_a5 - u_a2 - 1046 y_a2_proc_2 >= -2551
 c168: u_a5 - u_a2 - 844 y_a2_proc_0 >= -2551
 c169: u_a2 - u_a5 - 770 y_a5_proc_2 >= 0
 c170: u_a2 - u_a5 - 956 y_a5_proc_0 >= 0
 c171: u_a6 - u_a2 - 1046 y_a2_proc_2 >= -2550
 c172: u_a6 - u_a2 - 541 y_a2_proc_1 >= -2550
 c173: u_a6 - u_a2 - 844 y_a2_proc_0 >= 0
 c174: u_a2 - u_a6 - 1197 y_a6_proc_2 >= -2551
 c175: u_a2 - u_a6 - 835 y_a6_proc_1 >= -2551
 c176: u_a2 - u_a6 - 1149 y_a6_proc_0 >= -1
 c177: u_a7 - u_a2 - 1046 y_a2_proc_2 >= -2551
 c178: u_a7 - u_a2 - 541 y_a2_proc_1 >= -2551
 c179: u_a7 - u_a2 - 844 y_a2_proc_0 >= -1
 c180: u_a2 - u_a7 - 822 y_a7_proc_2 >= -2550
 c181: u_a2 - u_a7 - 1052 y_a7_proc_1 >= -2550
 c182: u_a2 - u_a7 - 475 y_a7_proc_0 >= 0
 c183: u_a8 - u_a2 - 1046 y_a2_proc_2 >= -1275
 c184: u_a8 - u_a2 - 541 y_a2_proc_1 >= 0
 c185: u_a8 - u_a2 - 844 y_a2_proc_0 >= 0
 c186: u_a2 - u_a8 - 705 y_a8_proc_2 >= -3826
 c187: u_a2 - u_a8 - 846 y_a8_proc_1 >= -2551
 c188: u_a2 - u_a8 - 986 y_a8_proc_0 >= -2551
 c189: u_a9 - u_a2 - 541 y_a2_proc_1 >= 0
 c190: u_a2 - u_a9 - 1051 y_a9_proc_1 >= -2551
 c191: u_a4 - u_a3 - 688 y_a3_proc_2 >= -2550
 c192: u_a4 - u_a3 - 915 y_a3_proc_1 >= -3825
 c193: u_a4 - u_a3 - 1123 y_a3_proc_0 >= -2550
 c194: u_a3 - u_a4 - 1254 y_a4_proc_2 >= -1
 c195: u_a3 - u_a4 - 1022 y_a4_proc_1 >= -1276
 c196: u_a3 - u_a4 - 743 y_a4_proc_0 >= -1
 c197: u_a5 - u_a3 - 688 y_a3_proc_2 >= -1
 c198: u_a5 - u_a3 - 1123 y_a3_proc_0 >= -2551
 c199: u_a3 - u_a5 - 770 y_a5_proc_2 >= 0
 c200: u_a3 - u_a5 - 956 y_a5_proc_0 >= -2550
 c201: u_a6 - u_a3 - 688 y_a3_proc_2 >= -2550
 c202: u_a6 - u_a3 - 915 y_a3_proc_1 >= -3825
 c203: u_a6 - u_a3 - 1123 y_a3_proc_0 >= -2550
 c204: u_a3 - u_a6 - 1197 y_a6_proc_2 >= -1
 c205: u_a3 - u_a6 - 835 y_a6_proc_1 >= -1276
 c206: u_a3 - u_a6 - 1149 y_a6_proc_0 >= -1
 c207: u_a7 - u_a3 - 688 y_a3_proc_2 >= -2551
 c208: u_a7 - u_a3 - 915 y_a3_proc_1 >= -3826
 c209: u_a7 - u_a3 - 1123 y_a3_proc_0 >= -2551
 c210: u_a3 - u_a7 - 822 y_a7_proc_2 >= 0
 c211: u_a3 - u_a7 - 1052 y_a7_proc_1 >= -1275
 c212: u_a3 - u_a7 - 475 y_a7_proc_0 >= 0
 c213: u_a8 - u_a3 - 688 y_a3_proc_2 >= -2498
 c214: u_a8 - u_a3 - 915 y_a3_proc_1 >= -2498
 c215: u_a8 - u_a3 - 1123 y_a3_proc_0 >= -3773
 c216: u_a3 - u_a8 - 705 y_a8_proc_2 >= -53
 c217: u_a3 - u_a8 - 846 y_a8_proc_1 >= -53
 c218: u_a3 - u_a8 - 986 y_a8_proc_0 >= -1328
 c219: u_a9 - u_a3 - 915 y_a3_proc_1 >= -2550
 c220: u_a3 - u_a9 - 1051 y_a9_proc_1 >= -1
 c221: u_a5 - u_a4 - 1254 y_a4_proc_2 >= -2551
 c222: u_a5 - u_a4 - 743 y_a4_proc_0 >= -2551
 c223: u_a4 - u_a5 - 770 y_a5_proc_2 >= 0
 c224: u_a4 - u_a5 - 956 y_a5_proc_0 >= 0
 c225: u_a6 - u_a4 - 1254 y_a4_proc_2 >= -2550
 c226: u_a6 - u_a4 - 1022 y_a4_proc_1 >= -2550
 c227: u_a6 - u_a4 - 743 y_a4_proc_0 >= 0
 c228: u_a4 - u_a6 - 1197 y_a6_proc_2 >= -2551
 c229: u_a4 - u_a6 - 835 y_a6_proc_1 >= -2551
 c230: u_a4 - u_a6 - 1149 y_a6_proc_0 >= -1
 c231: u_a7 - u_a4 - 1254 y_a4_proc_2 >= -2551
 c232: u_a7 - u_a4 - 1022 y_a4_proc_1 >= -2551
 c233: u_a7 - u_a4 - 743 y_a4_proc_0 >= -1
 c234: u_a4 - u_a7 - 822 y_a7_proc_2 >= -2550
 c235: u_a4 - u_a7 - 1052 y_a7_proc_1 >= -2550
 c236: u_a4 - u_a7 - 475 y_a7_proc_0 >= 0
 c237: u_a8 - u_a4 - 1254 y_a4_proc_2 >= -3784
 c238: u_a8 - u_a4 - 1022 y_a4_proc_1 >= -2509
 c239: u_a8 - u_a4 - 743 y_a4_proc_0 >= -2509
 c240: u_a4 - u_a8 - 705 y_a8_proc_2 >= -1317
 c241: u_a4 - u_a8 - 846 y_a8_proc_1 >= -42
 c242: u_a4 - u_a8 - 986 y_a8_proc_0 >= -42
 c243: u_a9 - u_a4 - 1022 y_a4_proc_1 >= -2550
 c244: u_a4 - u_a9 - 1051 y_a9_proc_1 >= -1
 c245: u_a6 - u_a5 - 770 y_a5_proc_2 >= -2549
 c246: u_a6 - u_a5 - 956 y_a5_proc_0 >= -2549
 c247: u_a5 - u_a6 - 1197 y_a6_proc_2 >= -2
 c248: u_a5 - u_a6 - 1149 y_a6_proc_0 >= -2
 c249: u_a7 - u_a5 - 770 y_a5_proc_2 >= 0
 c250: u_a7 - u_a5 - 956 y_a5_proc_0 >= 0
 c251: u_a5 - u_a7 - 822 y_a7_proc_2 >= -2551
 c252: u_a5 - u_a7 - 475 y_a7_proc_0 >= -2551
 c253: u_a8 - u_a5 - 770 y_a5_proc_2 >= -2549
 c254: u_a8 - u_a5 - 956 y_a5_proc_0 >= -3824
 c255: u_a5 - u_a8 - 705 y_a8_proc_2 >= -2
 c256: u_a5 - u_a8 - 986 y_a8_proc_0 >= -1277
 c257: u_a7 - u_a6 - 1197 y_a6_proc_2 >= -2551
 c258: u_a7 - u_a6 - 835 y_a6_proc_1 >= -2551
 c259: u_a7 - u_a6 - 1149 y_a6_proc_0 >= -1
 c260: u_a6 - u_a7 - 822 y_a7_proc_2 >= -2550
 c261: u_a6 - u_a7 - 1052 y_a7_proc_1 >= -2550
 c262: u_a6 - u_a7 - 475 y_a7_proc_0 >= 0
 c263: u_a8 - u_a6 - 1197 y_a6_proc_2 >= -3825
 c264: u_a8 - u_a6 - 835 y_a6_proc_1 >= -2550
 c265: u_a8 - u_a6 - 1149 y_a6_proc_0 >= -2550
 c266: u_a6 - u_a8 - 705 y_a8_proc_2 >= -1276
 c267: u_a6 - u_a8 - 846 y_a8_proc_1 >= -1
 c268: u_a6 - u_a8 - 986 y_a8_proc_0 >= -1
 c269: u_a9 - u_a6 - 835 y_a6_proc_1 >= -2551
 c270: u_a6 - u_a9 - 1051 y_a9_proc_1 >= 0
 c271: u_a8 - u_a7 - 822 y_a7_proc_2 >= -1275
 c272: u_a8 - u_a7 - 1052 y_a7_proc_1 >= 0
 c273: u_a8 - u_a7 - 475 y_a7_proc_0 >= 0
 c274: u_a7 - u_a8 - 705 y_a8_proc_2 >= -3826
 c275: u_a7 - u_a8 - 846 y_a8_proc_1 >= -2551
 c276: u_a7 - u_a8 - 986 y_a8_proc_0 >= -2551
 c277: u_a9 - u_a7 - 1052 y_a7_proc_1 >= -2501
 c278: u_a7 - u_a9 - 1051 y_a9_proc_1 >= -50
 c279: u_a9 - u_a8 - 846 y_a8_proc_1 >= -1
 c280: u_a8 - u_a9 - 1051 y_a9_proc_1 >= 0

Bounds
End
