benchmark/results/graph__10-1000-0.10-03_15/graph__10-1000-0.10-03_15_Quinton_Benders_primal_sub.txt
solution for: Quinton Benders_primal_sub
objective: 0.000244618
status: OPTIMAL_SOLUTION(2)
u_a0=1.188
u_a1=0.234
u_a2=0.397
u_a3=0.603
u_a4=0.772
u_a6=0.953
u_a7=0.234
u_a8=0.746
u_a9=0.489
tau=0.000
y_a0_proc_2=0.000
y_a1_proc_1=0.000
y_a2_proc_0=0.000
y_a3_proc_2=0.000
y_a4_proc_0=0.000
y_a5_proc_2=0.000
y_a6_proc_0=0.000
y_a7_proc_0=0.000
y_a8_proc_1=0.000
y_a9_proc_1=0.000
